language ESSENCE' 1.0

letting network_ExplicitWithRepetitionR5_Flag be 6
letting network_ExplicitWithRepetitionR5_Values_ExplicitVarSizeWithMarker_Marker be [0, 0, 0, 4, 5, 5; int(1..6)]
letting network_ExplicitWithRepetitionR5_Values_ExplicitVarSizeWithMarker_Values be
        [[1, 1, 1, 1, 1; int(1..5)], [1, 1, 1, 1, 1; int(1..5)], [1, 1, 1, 1, 1; int(1..5)],
         [1, 3, 8, 10, 1; int(1..5)], [2, 5, 6, 7, 10; int(1..5)], [3, 4, 6, 7, 9; int(1..5)];
             int(1..6)]
$ Visualisation for network_ExplicitWithRepetitionR5_Values_ExplicitVarSizeWithMarker_Values
$  1  1  1  1  1
$  1  1  1  1  1
$  1  1  1  1  1
$  1  3  8 10  1
$  2  5  6  7 10
$  3  4  6  7  9

